Maximize
  0.75 x_carrots + 0.80 x_cucumbers
Subject To
  c1: 0.30 x_carrots + 0.50 x_cucumbers <= 500
  c2: x_cucumbers - 0.3333333333333333 x_carrots <= 0
  c3: x_carrots >= 300
  c4: x_carrots <= 500
Integer
  x_carrots x_cucumbers
End